(set-info :source |printed by MathSAT|)
(declare-fun call__DRAGON_.ite49 () Int)
(declare-fun call__DRAGON_.g02 () Bool)
(declare-fun param_init_invalid () Int)
(declare-fun call__DRAGON_.erreur () Bool)
(declare-fun call__DRAGON_.flby4 () Int)
(declare-fun call__DRAGON_.g08 () Bool)
(declare-fun call__DRAGON_.ite60 () Int)
(declare-fun call__DRAGON_.ite33 () Int)
(declare-fun erreur () Bool)
(declare-fun call__DRAGON_.ite () Bool)
(declare-fun shared_dirty () Int)
(declare-fun call__DRAGON_.ite13 () Int)
(declare-fun call__DRAGON_.ite6 () Int)
(declare-fun call__DRAGON_.ite41 () Int)
(declare-fun call__DRAGON_.ite12 () Int)
(declare-fun call__DRAGON_.ite52 () Int)
(declare-fun call__DRAGON_.ite34 () Int)
(declare-fun call__DRAGON_.ite24 () Int)
(declare-fun call__DRAGON_.ite3 () Int)
(declare-fun call__DRAGON_.ite11 () Int)
(declare-fun call__DRAGON_.ite18 () Int)
(declare-fun call__DRAGON_.dirty () Int)
(declare-fun call__DRAGON_.ite15 () Int)
(declare-fun param_e01 () Bool)
(declare-fun call__DRAGON_.flby6 () Int)
(declare-fun param_e12 () Bool)
(declare-fun call__DRAGON_.ite51 () Int)
(declare-fun call__DRAGON_.ite7 () Int)
(declare-fun call__DRAGON_.flby () Int)
(declare-fun call__DRAGON_.ite30 () Int)
(declare-fun shared () Int)
(declare-fun call__DRAGON_.ite57 () Int)
(declare-fun call__DRAGON_.ite40 () Int)
(declare-fun call__DRAGON_.ite8 () Int)
(declare-fun call__DRAGON_.ite5 () Int)
(declare-fun call__DRAGON_.ite21 () Int)
(declare-fun call__DRAGON_.ite27 () Int)
(declare-fun call__DRAGON_.ite56 () Int)
(declare-fun call__DRAGON_.invalid () Int)
(declare-fun call__DRAGON_.ite47 () Int)
(declare-fun call__DRAGON_.ite16 () Int)
(declare-fun call__DRAGON_.ite4 () Int)
(declare-fun _OK_ () Bool)
(declare-fun call_excludes12.excludes () Bool)
(declare-fun call__DRAGON_.shared_dirty () Int)
(declare-fun call__DRAGON_.ite45 () Int)
(declare-fun call__DRAGON_.ite28 () Int)
(declare-fun param_e11 () Bool)
(declare-fun call__DRAGON_.ite23 () Int)
(declare-fun call__DRAGON_.ite37 () Int)
(declare-fun call__DRAGON_.ite54 () Int)
(declare-fun call__DRAGON_.flby2 () Int)
(declare-fun call__DRAGON_.ite19 () Int)
(declare-fun call__DRAGON_.ite25 () Int)
(declare-fun call__DRAGON_.ite58 () Int)
(declare-fun param_e03 () Bool)
(declare-fun call__DRAGON_.ite22 () Int)
(declare-fun call__DRAGON_.ite14 () Int)
(declare-fun call__DRAGON_.mem_init () Int)
(declare-fun call__DRAGON_.ite38 () Int)
(declare-fun call__DRAGON_.ite9 () Int)
(declare-fun param_e07 () Bool)
(declare-fun call__DRAGON_.ite55 () Int)
(declare-fun call__DRAGON_.flby3 () Int)
(declare-fun call__DRAGON_.ite35 () Int)
(declare-fun call__DRAGON_.ite43 () Int)
(declare-fun param_e06 () Bool)
(declare-fun call__DRAGON_.g05 () Bool)
(declare-fun call_Sofar.Sofar () Bool)
(declare-fun param_e10 () Bool)
(declare-fun call__DRAGON_.ite44 () Int)
(declare-fun call__DRAGON_.ite42 () Int)
(declare-fun call__DRAGON_.ite48 () Int)
(declare-fun call__DRAGON_.ite53 () Int)
(declare-fun invalid () Int)
(declare-fun call__DRAGON_.ite59 () Int)
(declare-fun call__DRAGON_.ite31 () Int)
(declare-fun call__DRAGON_.ite46 () Int)
(declare-fun call__DRAGON_.ite10 () Int)
(declare-fun call__DRAGON_.flby5 () Int)
(declare-fun call__DRAGON_.g04 () Bool)
(declare-fun param_e09 () Bool)
(declare-fun call__DRAGON_.ite32 () Int)
(declare-fun call__DRAGON_.ite61 () Int)
(declare-fun param_e04 () Bool)
(declare-fun call__DRAGON_.exclusive () Int)
(declare-fun call_Sofar.flby () Bool)
(declare-fun exclusive () Int)
(declare-fun call__DRAGON_.ite17 () Int)
(declare-fun call__DRAGON_.ite50 () Int)
(declare-fun call__DRAGON_.ite39 () Int)
(declare-fun param_e02 () Bool)
(declare-fun call__DRAGON_.ite29 () Int)
(declare-fun param_e05 () Bool)
(declare-fun call__DRAGON_.ite36 () Int)
(declare-fun call__DRAGON_.ite26 () Int)
(declare-fun call__DRAGON_.g06 () Bool)
(declare-fun param_e08 () Bool)
(declare-fun call__DRAGON_.ite20 () Int)
(declare-fun dirty () Int)
(declare-fun call__DRAGON_.ite2 () Int)
(declare-fun call__DRAGON_.shared () Int)
(define-fun .def_1708 () Bool (= call_Sofar.flby call_Sofar.Sofar))
(define-fun .def_1500 () Bool (not param_e02))
(define-fun .def_1481 () Bool (not param_e01))
(define-fun .def_1606 () Bool (and .def_1481 .def_1500))
(define-fun .def_1541 () Bool (not param_e03))
(define-fun .def_1607 () Bool (and .def_1541 .def_1606))
(define-fun .def_1557 () Bool (not param_e04))
(define-fun .def_1608 () Bool (and .def_1557 .def_1607))
(define-fun .def_1573 () Bool (not param_e05))
(define-fun .def_1609 () Bool (and .def_1573 .def_1608))
(define-fun .def_1372 () Bool (not param_e06))
(define-fun .def_1610 () Bool (and .def_1372 .def_1609))
(define-fun .def_1353 () Bool (not param_e07))
(define-fun .def_1611 () Bool (and .def_1353 .def_1610))
(define-fun .def_1390 () Bool (not param_e08))
(define-fun .def_1612 () Bool (and .def_1390 .def_1611))
(define-fun .def_1249 () Bool (not param_e09))
(define-fun .def_1613 () Bool (and .def_1249 .def_1612))
(define-fun .def_1255 () Bool (not param_e10))
(define-fun .def_1614 () Bool (and .def_1255 .def_1613))
(define-fun .def_1262 () Bool (not param_e11))
(define-fun .def_1615 () Bool (and .def_1262 .def_1614))
(define-fun .def_1269 () Bool (not param_e12))
(define-fun .def_1693 () Bool (and .def_1269 .def_1615))
(define-fun .def_1682 () Bool (and param_e01 .def_1500))
(define-fun .def_1683 () Bool (and .def_1541 .def_1682))
(define-fun .def_1684 () Bool (and .def_1557 .def_1683))
(define-fun .def_1685 () Bool (and .def_1573 .def_1684))
(define-fun .def_1686 () Bool (and .def_1372 .def_1685))
(define-fun .def_1687 () Bool (and .def_1353 .def_1686))
(define-fun .def_1688 () Bool (and .def_1390 .def_1687))
(define-fun .def_1689 () Bool (and .def_1249 .def_1688))
(define-fun .def_1690 () Bool (and .def_1255 .def_1689))
(define-fun .def_1691 () Bool (and .def_1262 .def_1690))
(define-fun .def_1692 () Bool (and .def_1269 .def_1691))
(define-fun .def_1694 () Bool (or .def_1692 .def_1693))
(define-fun .def_1671 () Bool (and .def_1481 param_e02))
(define-fun .def_1672 () Bool (and .def_1541 .def_1671))
(define-fun .def_1673 () Bool (and .def_1557 .def_1672))
(define-fun .def_1674 () Bool (and .def_1573 .def_1673))
(define-fun .def_1675 () Bool (and .def_1372 .def_1674))
(define-fun .def_1676 () Bool (and .def_1353 .def_1675))
(define-fun .def_1677 () Bool (and .def_1390 .def_1676))
(define-fun .def_1678 () Bool (and .def_1249 .def_1677))
(define-fun .def_1679 () Bool (and .def_1255 .def_1678))
(define-fun .def_1680 () Bool (and .def_1262 .def_1679))
(define-fun .def_1681 () Bool (and .def_1269 .def_1680))
(define-fun .def_1695 () Bool (or .def_1681 .def_1694))
(define-fun .def_1661 () Bool (and param_e03 .def_1606))
(define-fun .def_1662 () Bool (and .def_1557 .def_1661))
(define-fun .def_1663 () Bool (and .def_1573 .def_1662))
(define-fun .def_1664 () Bool (and .def_1372 .def_1663))
(define-fun .def_1665 () Bool (and .def_1353 .def_1664))
(define-fun .def_1666 () Bool (and .def_1390 .def_1665))
(define-fun .def_1667 () Bool (and .def_1249 .def_1666))
(define-fun .def_1668 () Bool (and .def_1255 .def_1667))
(define-fun .def_1669 () Bool (and .def_1262 .def_1668))
(define-fun .def_1670 () Bool (and .def_1269 .def_1669))
(define-fun .def_1696 () Bool (or .def_1670 .def_1695))
(define-fun .def_1652 () Bool (and param_e04 .def_1607))
(define-fun .def_1653 () Bool (and .def_1573 .def_1652))
(define-fun .def_1654 () Bool (and .def_1372 .def_1653))
(define-fun .def_1655 () Bool (and .def_1353 .def_1654))
(define-fun .def_1656 () Bool (and .def_1390 .def_1655))
(define-fun .def_1657 () Bool (and .def_1249 .def_1656))
(define-fun .def_1658 () Bool (and .def_1255 .def_1657))
(define-fun .def_1659 () Bool (and .def_1262 .def_1658))
(define-fun .def_1660 () Bool (and .def_1269 .def_1659))
(define-fun .def_1697 () Bool (or .def_1660 .def_1696))
(define-fun .def_1644 () Bool (and param_e05 .def_1608))
(define-fun .def_1645 () Bool (and .def_1372 .def_1644))
(define-fun .def_1646 () Bool (and .def_1353 .def_1645))
(define-fun .def_1647 () Bool (and .def_1390 .def_1646))
(define-fun .def_1648 () Bool (and .def_1249 .def_1647))
(define-fun .def_1649 () Bool (and .def_1255 .def_1648))
(define-fun .def_1650 () Bool (and .def_1262 .def_1649))
(define-fun .def_1651 () Bool (and .def_1269 .def_1650))
(define-fun .def_1698 () Bool (or .def_1651 .def_1697))
(define-fun .def_1637 () Bool (and param_e06 .def_1609))
(define-fun .def_1638 () Bool (and .def_1353 .def_1637))
(define-fun .def_1639 () Bool (and .def_1390 .def_1638))
(define-fun .def_1640 () Bool (and .def_1249 .def_1639))
(define-fun .def_1641 () Bool (and .def_1255 .def_1640))
(define-fun .def_1642 () Bool (and .def_1262 .def_1641))
(define-fun .def_1643 () Bool (and .def_1269 .def_1642))
(define-fun .def_1699 () Bool (or .def_1643 .def_1698))
(define-fun .def_1631 () Bool (and param_e07 .def_1610))
(define-fun .def_1632 () Bool (and .def_1390 .def_1631))
(define-fun .def_1633 () Bool (and .def_1249 .def_1632))
(define-fun .def_1634 () Bool (and .def_1255 .def_1633))
(define-fun .def_1635 () Bool (and .def_1262 .def_1634))
(define-fun .def_1636 () Bool (and .def_1269 .def_1635))
(define-fun .def_1700 () Bool (or .def_1636 .def_1699))
(define-fun .def_1626 () Bool (and param_e08 .def_1611))
(define-fun .def_1627 () Bool (and .def_1249 .def_1626))
(define-fun .def_1628 () Bool (and .def_1255 .def_1627))
(define-fun .def_1629 () Bool (and .def_1262 .def_1628))
(define-fun .def_1630 () Bool (and .def_1269 .def_1629))
(define-fun .def_1701 () Bool (or .def_1630 .def_1700))
(define-fun .def_1622 () Bool (and param_e09 .def_1612))
(define-fun .def_1623 () Bool (and .def_1255 .def_1622))
(define-fun .def_1624 () Bool (and .def_1262 .def_1623))
(define-fun .def_1625 () Bool (and .def_1269 .def_1624))
(define-fun .def_1702 () Bool (or .def_1625 .def_1701))
(define-fun .def_1619 () Bool (and param_e10 .def_1613))
(define-fun .def_1620 () Bool (and .def_1262 .def_1619))
(define-fun .def_1621 () Bool (and .def_1269 .def_1620))
(define-fun .def_1703 () Bool (or .def_1621 .def_1702))
(define-fun .def_1617 () Bool (and param_e11 .def_1614))
(define-fun .def_1618 () Bool (and .def_1269 .def_1617))
(define-fun .def_1704 () Bool (or .def_1618 .def_1703))
(define-fun .def_1616 () Bool (and param_e12 .def_1615))
(define-fun .def_1705 () Bool (or .def_1616 .def_1704))
(define-fun .def_1706 () Bool (= call_excludes12.excludes .def_1705))
(define-fun .def_1604 () Bool (= call__DRAGON_.mem_init call__DRAGON_.flby))
(define-fun .def_1602 () Bool (= call__DRAGON_.erreur call__DRAGON_.ite))
(define-fun .def_1600 () Bool (= call__DRAGON_.flby6 call__DRAGON_.invalid))
(define-fun .def_1598 () Bool (= call__DRAGON_.flby5 call__DRAGON_.dirty))
(define-fun .def_1596 () Bool (= call__DRAGON_.flby4 call__DRAGON_.shared_dirty))
(define-fun .def_1594 () Bool (= call__DRAGON_.flby3 call__DRAGON_.shared))
(define-fun .def_1591 () Bool (= call__DRAGON_.flby2 call__DRAGON_.exclusive))
(define-fun .def_1586 () Bool (<= 2 call__DRAGON_.exclusive))
(define-fun .def_1588 () Bool (not .def_1586))
(define-fun .def_1589 () Bool (or call__DRAGON_.ite .def_1588))
(define-fun .def_1585 () Bool (not call__DRAGON_.ite))
(define-fun .def_1587 () Bool (or .def_1585 .def_1586))
(define-fun .def_1590 () Bool (and .def_1587 .def_1589))
(define-fun .def_1592 () Bool (and .def_1590 .def_1591))
(define-fun .def_1580 () Bool (= call__DRAGON_.ite41 call__DRAGON_.ite42))
(define-fun .def_1581 () Bool (or param_e05 .def_1580))
(define-fun .def_1577 () Bool (= call__DRAGON_.ite42 call__DRAGON_.ite35))
(define-fun .def_1578 () Bool (or .def_1573 .def_1577))
(define-fun .def_1572 () Bool (= call__DRAGON_.ite13 call__DRAGON_.ite20))
(define-fun .def_1574 () Bool (or .def_1572 .def_1573))
(define-fun .def_1569 () Bool (= call__DRAGON_.ite19 call__DRAGON_.ite20))
(define-fun .def_1571 () Bool (or .def_1569 param_e05))
(define-fun .def_1575 () Bool (and .def_1571 .def_1574))
(define-fun .def_1579 () Bool (and .def_1575 .def_1578))
(define-fun .def_1582 () Bool (and .def_1579 .def_1581))
(define-fun .def_1565 () Bool (= call__DRAGON_.ite43 call__DRAGON_.ite42))
(define-fun .def_1566 () Bool (or param_e04 .def_1565))
(define-fun .def_1561 () Bool (= call__DRAGON_.ite43 call__DRAGON_.ite34))
(define-fun .def_1562 () Bool (or .def_1557 .def_1561))
(define-fun .def_1556 () Bool (= call__DRAGON_.ite23 call__DRAGON_.ite30))
(define-fun .def_1558 () Bool (or .def_1556 .def_1557))
(define-fun .def_1553 () Bool (= call__DRAGON_.ite29 call__DRAGON_.ite30))
(define-fun .def_1555 () Bool (or .def_1553 param_e04))
(define-fun .def_1559 () Bool (and .def_1555 .def_1558))
(define-fun .def_1563 () Bool (and .def_1559 .def_1562))
(define-fun .def_1567 () Bool (and .def_1563 .def_1566))
(define-fun .def_1549 () Bool (= call__DRAGON_.ite44 call__DRAGON_.ite43))
(define-fun .def_1550 () Bool (or param_e03 .def_1549))
(define-fun .def_1545 () Bool (= call__DRAGON_.ite44 call__DRAGON_.ite33))
(define-fun .def_1546 () Bool (or .def_1541 .def_1545))
(define-fun .def_1540 () Bool (= call__DRAGON_.ite9 call__DRAGON_.ite4))
(define-fun .def_1542 () Bool (or .def_1540 .def_1541))
(define-fun .def_1536 () Bool (= call__DRAGON_.ite8 call__DRAGON_.ite9))
(define-fun .def_1538 () Bool (or .def_1536 param_e03))
(define-fun .def_1543 () Bool (and .def_1538 .def_1542))
(define-fun .def_1547 () Bool (and .def_1543 .def_1546))
(define-fun .def_1551 () Bool (and .def_1547 .def_1550))
(define-fun .def_1532 () Bool (= call__DRAGON_.ite31 call__DRAGON_.ite30))
(define-fun .def_1533 () Bool (or param_e02 .def_1532))
(define-fun .def_1528 () Bool (= call__DRAGON_.ite22 call__DRAGON_.ite31))
(define-fun .def_1529 () Bool (or .def_1500 .def_1528))
(define-fun .def_1523 () Bool (= call__DRAGON_.ite21 call__DRAGON_.ite20))
(define-fun .def_1524 () Bool (or param_e02 .def_1523))
(define-fun .def_1519 () Bool (= call__DRAGON_.ite12 call__DRAGON_.ite21))
(define-fun .def_1520 () Bool (or .def_1500 .def_1519))
(define-fun .def_1514 () Bool (= call__DRAGON_.ite10 call__DRAGON_.ite9))
(define-fun .def_1515 () Bool (or param_e02 .def_1514))
(define-fun .def_1510 () Bool (= call__DRAGON_.ite3 call__DRAGON_.ite10))
(define-fun .def_1511 () Bool (or .def_1500 .def_1510))
(define-fun .def_1507 () Bool (= call__DRAGON_.ite59 call__DRAGON_.ite60))
(define-fun .def_1508 () Bool (or param_e02 .def_1507))
(define-fun .def_1504 () Bool (= call__DRAGON_.ite60 call__DRAGON_.ite47))
(define-fun .def_1505 () Bool (or .def_1500 .def_1504))
(define-fun .def_1499 () Bool (= call__DRAGON_.ite32 call__DRAGON_.ite45))
(define-fun .def_1501 () Bool (or .def_1499 .def_1500))
(define-fun .def_1496 () Bool (= call__DRAGON_.ite45 call__DRAGON_.ite44))
(define-fun .def_1498 () Bool (or .def_1496 param_e02))
(define-fun .def_1502 () Bool (and .def_1498 .def_1501))
(define-fun .def_1506 () Bool (and .def_1502 .def_1505))
(define-fun .def_1509 () Bool (and .def_1506 .def_1508))
(define-fun .def_1512 () Bool (and .def_1509 .def_1511))
(define-fun .def_1516 () Bool (and .def_1512 .def_1515))
(define-fun .def_1521 () Bool (and .def_1516 .def_1520))
(define-fun .def_1525 () Bool (and .def_1521 .def_1524))
(define-fun .def_1530 () Bool (and .def_1525 .def_1529))
(define-fun .def_1534 () Bool (and .def_1530 .def_1533))
(define-fun .def_1490 () Bool (= call__DRAGON_.ite11 call__DRAGON_.ite10))
(define-fun .def_1491 () Bool (or param_e01 .def_1490))
(define-fun .def_1486 () Bool (= call__DRAGON_.ite2 call__DRAGON_.ite11))
(define-fun .def_1487 () Bool (or .def_1481 .def_1486))
(define-fun .def_1480 () Bool (= call__DRAGON_.ite61 call__DRAGON_.ite46))
(define-fun .def_1482 () Bool (or .def_1480 .def_1481))
(define-fun .def_1476 () Bool (= call__DRAGON_.ite61 call__DRAGON_.ite60))
(define-fun .def_1478 () Bool (or .def_1476 param_e01))
(define-fun .def_1483 () Bool (and .def_1478 .def_1482))
(define-fun .def_1488 () Bool (and .def_1483 .def_1487))
(define-fun .def_1492 () Bool (and .def_1488 .def_1491))
(define-fun .def_1470 () Bool (= call__DRAGON_.ite55 call__DRAGON_.ite52))
(define-fun .def_1471 () Bool (or .def_1262 .def_1470))
(define-fun .def_1467 () Bool (= call__DRAGON_.ite54 call__DRAGON_.ite55))
(define-fun .def_1468 () Bool (or param_e11 .def_1467))
(define-fun .def_1472 () Bool (and .def_1468 .def_1471))
(define-fun .def_1463 () Bool (= call__DRAGON_.ite56 call__DRAGON_.ite51))
(define-fun .def_1464 () Bool (or .def_1255 .def_1463))
(define-fun .def_1460 () Bool (= call__DRAGON_.ite56 call__DRAGON_.ite55))
(define-fun .def_1461 () Bool (or param_e10 .def_1460))
(define-fun .def_1465 () Bool (and .def_1461 .def_1464))
(define-fun .def_1457 () Bool (= erreur call__DRAGON_.erreur))
(define-fun .def_1452 () Bool (= call__DRAGON_.ite57 call__DRAGON_.ite50))
(define-fun .def_1453 () Bool (or .def_1249 .def_1452))
(define-fun .def_1449 () Bool (= call__DRAGON_.ite57 call__DRAGON_.ite56))
(define-fun .def_1450 () Bool (or param_e09 .def_1449))
(define-fun .def_1454 () Bool (and .def_1450 .def_1453))
(define-fun .def_1446 () Bool (= invalid call__DRAGON_.invalid))
(define-fun .def_1442 () Bool (= dirty call__DRAGON_.dirty))
(define-fun .def_1438 () Bool (= shared_dirty call__DRAGON_.shared_dirty))
(define-fun .def_1434 () Bool (= shared call__DRAGON_.shared))
(define-fun .def_1430 () Bool (= exclusive call__DRAGON_.exclusive))
(define-fun .def_1424 () Bool (not erreur))
(define-fun .def_1422 () Bool (not call_Sofar.Sofar))
(define-fun .def_1425 () Bool (or .def_1422 .def_1424))
(define-fun .def_1426 () Bool (= _OK_ .def_1425))
(define-fun .def_1416 () Bool (= call__DRAGON_.ite39 call__DRAGON_.ite40))
(define-fun .def_1417 () Bool (or param_e08 .def_1416))
(define-fun .def_1413 () Bool (= call__DRAGON_.ite37 call__DRAGON_.ite40))
(define-fun .def_1414 () Bool (or .def_1390 .def_1413))
(define-fun .def_1410 () Bool (= call__DRAGON_.ite27 call__DRAGON_.ite28))
(define-fun .def_1411 () Bool (or param_e08 .def_1410))
(define-fun .def_1407 () Bool (= call__DRAGON_.ite25 call__DRAGON_.ite28))
(define-fun .def_1408 () Bool (or .def_1390 .def_1407))
(define-fun .def_1404 () Bool (= call__DRAGON_.ite17 call__DRAGON_.ite18))
(define-fun .def_1405 () Bool (or param_e08 .def_1404))
(define-fun .def_1401 () Bool (= call__DRAGON_.ite18 call__DRAGON_.ite15))
(define-fun .def_1402 () Bool (or .def_1390 .def_1401))
(define-fun .def_1397 () Bool (= call__DRAGON_.ite7 call__DRAGON_.ite8))
(define-fun .def_1398 () Bool (or param_e08 .def_1397))
(define-fun .def_1394 () Bool (= call__DRAGON_.ite5 call__DRAGON_.ite8))
(define-fun .def_1395 () Bool (or .def_1390 .def_1394))
(define-fun .def_1389 () Bool (= call__DRAGON_.ite58 call__DRAGON_.ite49))
(define-fun .def_1391 () Bool (or .def_1389 .def_1390))
(define-fun .def_1385 () Bool (= call__DRAGON_.ite58 call__DRAGON_.ite57))
(define-fun .def_1387 () Bool (or .def_1385 param_e08))
(define-fun .def_1392 () Bool (and .def_1387 .def_1391))
(define-fun .def_1396 () Bool (and .def_1392 .def_1395))
(define-fun .def_1399 () Bool (and .def_1396 .def_1398))
(define-fun .def_1403 () Bool (and .def_1399 .def_1402))
(define-fun .def_1406 () Bool (and .def_1403 .def_1405))
(define-fun .def_1409 () Bool (and .def_1406 .def_1408))
(define-fun .def_1412 () Bool (and .def_1409 .def_1411))
(define-fun .def_1415 () Bool (and .def_1412 .def_1414))
(define-fun .def_1418 () Bool (and .def_1415 .def_1417))
(define-fun .def_1380 () Bool (= call__DRAGON_.ite29 call__DRAGON_.ite28))
(define-fun .def_1381 () Bool (or param_e06 .def_1380))
(define-fun .def_1376 () Bool (= call__DRAGON_.ite24 call__DRAGON_.ite29))
(define-fun .def_1377 () Bool (or .def_1372 .def_1376))
(define-fun .def_1371 () Bool (= call__DRAGON_.ite19 call__DRAGON_.ite14))
(define-fun .def_1373 () Bool (or .def_1371 .def_1372))
(define-fun .def_1367 () Bool (= call__DRAGON_.ite18 call__DRAGON_.ite19))
(define-fun .def_1369 () Bool (or .def_1367 param_e06))
(define-fun .def_1374 () Bool (and .def_1369 .def_1373))
(define-fun .def_1378 () Bool (and .def_1374 .def_1377))
(define-fun .def_1382 () Bool (and .def_1378 .def_1381))
(define-fun .def_1362 () Bool (= call__DRAGON_.ite41 call__DRAGON_.ite40))
(define-fun .def_1363 () Bool (or param_e07 .def_1362))
(define-fun .def_1358 () Bool (= call__DRAGON_.ite36 call__DRAGON_.ite41))
(define-fun .def_1359 () Bool (or .def_1353 .def_1358))
(define-fun .def_1352 () Bool (= call__DRAGON_.ite59 call__DRAGON_.ite48))
(define-fun .def_1354 () Bool (or .def_1352 .def_1353))
(define-fun .def_1348 () Bool (= call__DRAGON_.ite58 call__DRAGON_.ite59))
(define-fun .def_1350 () Bool (or .def_1348 param_e07))
(define-fun .def_1355 () Bool (and .def_1350 .def_1354))
(define-fun .def_1360 () Bool (and .def_1355 .def_1359))
(define-fun .def_1364 () Bool (and .def_1360 .def_1363))
(define-fun .def_1383 () Bool (and .def_1364 .def_1382))
(define-fun .def_1419 () Bool (and .def_1383 .def_1418))
(define-fun .def_1427 () Bool (and .def_1419 .def_1426))
(define-fun .def_1431 () Bool (and .def_1427 .def_1430))
(define-fun .def_1435 () Bool (and .def_1431 .def_1434))
(define-fun .def_1439 () Bool (and .def_1435 .def_1438))
(define-fun .def_1443 () Bool (and .def_1439 .def_1442))
(define-fun .def_1447 () Bool (and .def_1443 .def_1446))
(define-fun .def_1455 () Bool (and .def_1447 .def_1454))
(define-fun .def_1458 () Bool (and .def_1455 .def_1457))
(define-fun .def_1466 () Bool (and .def_1458 .def_1465))
(define-fun .def_1473 () Bool (and .def_1466 .def_1472))
(define-fun .def_1493 () Bool (and .def_1473 .def_1492))
(define-fun .def_1535 () Bool (and .def_1493 .def_1534))
(define-fun .def_1552 () Bool (and .def_1535 .def_1551))
(define-fun .def_1568 () Bool (and .def_1552 .def_1567))
(define-fun .def_1583 () Bool (and .def_1568 .def_1582))
(define-fun .def_1593 () Bool (and .def_1583 .def_1592))
(define-fun .def_1595 () Bool (and .def_1593 .def_1594))
(define-fun .def_1597 () Bool (and .def_1595 .def_1596))
(define-fun .def_1599 () Bool (and .def_1597 .def_1598))
(define-fun .def_1601 () Bool (and .def_1599 .def_1600))
(define-fun .def_1603 () Bool (and .def_1601 .def_1602))
(define-fun .def_1605 () Bool (and .def_1603 .def_1604))
(define-fun .def_1707 () Bool (and .def_1605 .def_1706))
(define-fun .def_1709 () Bool (and .def_1707 .def_1708))
(define-fun .def_1339 () Bool (<= param_init_invalid 0))
(define-fun .def_1340 () Bool (not .def_1339))
(define-fun .def_1342 () Bool (and .def_1340 call_excludes12.excludes))
(define-fun .def_1344 () Bool (= .def_1342 call_Sofar.flby))
(define-fun .def_1337 () Bool (= call__DRAGON_.flby4 0))
(define-fun .def_1334 () Bool (= call__DRAGON_.flby3 0))
(define-fun .def_1331 () Bool (= call__DRAGON_.flby2 0))
(define-fun .def_1328 () Bool (= param_init_invalid call__DRAGON_.flby))
(define-fun .def_1322 () Bool (= call__DRAGON_.ite37 0))
(define-fun .def_1315 () Bool (not call__DRAGON_.g08))
(define-fun .def_1323 () Bool (or .def_1315 .def_1322))
(define-fun .def_1318 () Bool (= call__DRAGON_.ite5 0))
(define-fun .def_1319 () Bool (or .def_1315 .def_1318))
(define-fun .def_1313 () Bool (= call__DRAGON_.ite25 1))
(define-fun .def_1316 () Bool (or .def_1313 .def_1315))
(define-fun .def_1320 () Bool (and .def_1316 .def_1319))
(define-fun .def_1324 () Bool (and .def_1320 .def_1323))
(define-fun .def_1309 () Bool (= call__DRAGON_.ite24 1))
(define-fun .def_1307 () Bool (not call__DRAGON_.g06))
(define-fun .def_1310 () Bool (or .def_1307 .def_1309))
(define-fun .def_1303 () Bool (= call__DRAGON_.ite13 0))
(define-fun .def_1301 () Bool (not call__DRAGON_.g05))
(define-fun .def_1304 () Bool (or .def_1301 .def_1303))
(define-fun .def_1297 () Bool (= call__DRAGON_.ite23 0))
(define-fun .def_1295 () Bool (not call__DRAGON_.g04))
(define-fun .def_1298 () Bool (or .def_1295 .def_1297))
(define-fun .def_1290 () Bool (= call__DRAGON_.ite3 0))
(define-fun .def_1287 () Bool (not call__DRAGON_.g02))
(define-fun .def_1291 () Bool (or .def_1287 .def_1290))
(define-fun .def_1285 () Bool (= call__DRAGON_.ite32 0))
(define-fun .def_1288 () Bool (or .def_1285 .def_1287))
(define-fun .def_1292 () Bool (and .def_1288 .def_1291))
(define-fun .def_1282 () Bool (= call__DRAGON_.flby6 call__DRAGON_.mem_init))
(define-fun .def_1278 () Bool (= call__DRAGON_.flby5 0))
(define-fun .def_1273 () Bool (= call__DRAGON_.ite53 call__DRAGON_.ite54))
(define-fun .def_1274 () Bool (or .def_1269 .def_1273))
(define-fun .def_1267 () Bool (= call__DRAGON_.ite6 call__DRAGON_.ite7))
(define-fun .def_1270 () Bool (or .def_1267 .def_1269))
(define-fun .def_1275 () Bool (and .def_1270 .def_1274))
(define-fun .def_1260 () Bool (= call__DRAGON_.ite26 call__DRAGON_.ite27))
(define-fun .def_1263 () Bool (or .def_1260 .def_1262))
(define-fun .def_1253 () Bool (= call__DRAGON_.ite16 call__DRAGON_.ite17))
(define-fun .def_1256 () Bool (or .def_1253 .def_1255))
(define-fun .def_1247 () Bool (= call__DRAGON_.ite38 call__DRAGON_.ite39))
(define-fun .def_1250 () Bool (or .def_1247 .def_1249))
(define-fun .def_1257 () Bool (and .def_1250 .def_1256))
(define-fun .def_1264 () Bool (and .def_1257 .def_1263))
(define-fun .def_1276 () Bool (and .def_1264 .def_1275))
(define-fun .def_1279 () Bool (and .def_1276 .def_1278))
(define-fun .def_1283 () Bool (and .def_1279 .def_1282))
(define-fun .def_1293 () Bool (and .def_1283 .def_1292))
(define-fun .def_1299 () Bool (and .def_1293 .def_1298))
(define-fun .def_1305 () Bool (and .def_1299 .def_1304))
(define-fun .def_1311 () Bool (and .def_1305 .def_1310))
(define-fun .def_1325 () Bool (and .def_1311 .def_1324))
(define-fun .def_1329 () Bool (and .def_1325 .def_1328))
(define-fun .def_1332 () Bool (and .def_1329 .def_1331))
(define-fun .def_1335 () Bool (and .def_1332 .def_1334))
(define-fun .def_1338 () Bool (and .def_1335 .def_1337))
(define-fun .def_1345 () Bool (and .def_1338 .def_1344))
(define-fun .def_1710 () Bool (and .def_1345 .def_1709))
(assert .def_1710)
